NAME: instances/15_3.tsp
TYPE: TSP
COMMENT: 15-Staedte in Burma (Zaw Win)
DIMENSION: 15
EDGE_WEIGHT_TYPE: GEO
EDGE_WEIGHT_FORMAT: FUNCTION
DISPLAY_DATA_TYPE: COORD_DISPLAY
NODE_COORD_SECTION
1 25.53 -9.78
2 -6.75 -19.41
3 21.52 -13.94
4 -5.53 26.58
5 -22.51 29.08
6 28.41 -1.92
7 -23.86 11.71
8 -12.66 6.62
9 -6.07 -2.75
10 -0.95 -24.65
11 22.76 -23.93
12 0.15 13.31
13 2.22 12.77
14 14.23 5.63
15 -6.76 27.48
EOF
